(set-logic HORN)
(set-info :source |
    Benchmark: C_VC
    Output by Princess (http://www.philipp.ruemmer.org/princess.shtml)
|)
(set-info :status unsat)
(declare-fun inv_main6 (Int Int Int Int) Bool)
(declare-fun inv_main77 (Int Int Int Int Int Int Int Int Int Int Int Int Int Int) Bool)
(declare-fun inv_main84 (Int Int Int Int Int Int Int Int Int Int Int Int Int Int) Bool)
(assert (forall ((var0 Int) (var1 Int) (var2 Int)) (inv_main6 var2 0 var1 var0)))
(assert (forall ((var0 Int) (var1 Int) (var2 Int) (var3 Int) (var4 Int) (var5 Int) (var6 Int) (var7 Int) (var8 Int) (var9 Int) (var10 Int) (var11 Int) (var12 Int) (var13 Int)) (or (not (and (inv_main77 var13 var12 var11 var10 var9 var8 var7 var6 var5 var4 var3 var2 var1 var0) (and (= var2 (+ var7 (* (- 1) var6))) (and (<= 0 (+ var7 (* (- 1) var6))) (and (= var3 var0) (<= 0 var0)))))) (inv_main84 var13 var12 var11 var10 var9 var8 var7 var6 var5 var4 var3 var2 var1 (+ var7 (* (- 1) var6))))))
(assert (forall ((var0 Int) (var1 Int) (var2 Int) (var3 Int) (var4 Int) (var5 Int) (var6 Int) (var7 Int) (var8 Int) (var9 Int) (var10 Int) (var11 Int) (var12 Int) (var13 Int)) (or (not (and (inv_main77 var13 var12 var11 var10 var9 var8 var7 var6 var5 var4 var3 var2 var1 var0) (and (= var2 (* (- 1) (+ var7 (* (- 1) var6)))) (and (not (<= 0 (+ var7 (* (- 1) var6)))) (and (= var3 var0) (<= 0 var0)))))) (inv_main84 var13 var12 var11 var10 var9 var8 var7 var6 var5 var4 var3 var2 var1 (* (- 1) (+ var7 (* (- 1) var6)))))))
(assert (forall ((var0 Int) (var1 Int) (var2 Int) (var3 Int) (var4 Int) (var5 Int) (var6 Int) (var7 Int) (var8 Int) (var9 Int) (var10 Int) (var11 Int) (var12 Int) (var13 Int)) (or (not (and (inv_main77 var13 var12 var11 var10 var9 var8 var7 var6 var5 var4 var3 var2 var1 var0) (and (= var2 (+ var7 (* (- 1) var6))) (and (<= 0 (+ var7 (* (- 1) var6))) (and (= var3 (* (- 1) var0)) (not (<= 0 var0))))))) (inv_main84 var13 var12 var11 var10 var9 var8 var7 var6 var5 var4 var3 var2 var1 (+ var7 (* (- 1) var6))))))
(assert (forall ((var0 Int) (var1 Int) (var2 Int) (var3 Int) (var4 Int) (var5 Int) (var6 Int) (var7 Int) (var8 Int) (var9 Int) (var10 Int) (var11 Int) (var12 Int) (var13 Int)) (or (not (and (inv_main77 var13 var12 var11 var10 var9 var8 var7 var6 var5 var4 var3 var2 var1 var0) (and (= var2 (* (- 1) (+ var7 (* (- 1) var6)))) (and (not (<= 0 (+ var7 (* (- 1) var6)))) (and (= var3 (* (- 1) var0)) (not (<= 0 var0))))))) (inv_main84 var13 var12 var11 var10 var9 var8 var7 var6 var5 var4 var3 var2 var1 (* (- 1) (+ var7 (* (- 1) var6)))))))
(assert (forall ((var0 Int) (var1 Int) (var2 Int) (var3 Int) (var4 Int) (var5 Int) (var6 Int) (var7 Int) (var8 Int) (var9 Int) (var10 Int) (var11 Int) (var12 Int)) (or (not (and (inv_main6 var12 var11 var10 var9) (and (and (and (and (and (and (and (and (and (and (and (= var8 (+ var7 (* (- 1) var6))) (and (<= 0 (+ var7 (* (- 1) var6))) (and (= var5 (+ var4 (* (- 1) var7))) (<= 0 (+ var4 (* (- 1) var7)))))) (and (not (= var3 var2)) (and (not (= var8 var2)) (and (not (= var8 var3)) (and (not (= var5 var2)) (and (not (= var5 var3)) (and (not (= var5 var8)) (and (not (= var1 var0)) (and (not (= var6 var0)) (and (not (= var6 var1)) (and (not (= var7 var0)) (and (not (= var7 var1)) (and (not (= var7 var6)) (and (not (= var4 var0)) (and (not (= var4 var1)) (and (not (= var4 var6)) (not (= var4 var7)))))))))))))))))) (and (<= 0 (+ 4 (* (- 1) var2))) (<= 0 (+ var2 (- 1))))) (and (<= 0 (+ 4 (* (- 1) var3))) (<= 0 (+ var3 (- 1))))) (and (<= 0 (+ 4 (* (- 1) var8))) (<= 0 (+ var8 (- 1))))) (and (<= 0 (+ 4 (* (- 1) var5))) (<= 0 (+ var5 (- 1))))) (and (<= 0 (+ 4 (* (- 1) var0))) (<= 0 var0))) (and (<= 0 (+ 4 (* (- 1) var1))) (<= 0 var1))) (and (<= 0 (+ 4 (* (- 1) var6))) (<= 0 var6))) (and (<= 0 (+ 4 (* (- 1) var7))) (<= 0 var7))) (and (<= 0 (+ 4 (* (- 1) var4))) (<= 0 var4))))) (inv_main77 var12 var11 var10 var4 var7 var6 var1 var0 var5 var8 var3 var2 1 (+ var6 (* (- 1) var1))))))
(assert (forall ((var0 Int) (var1 Int) (var2 Int) (var3 Int) (var4 Int) (var5 Int) (var6 Int) (var7 Int) (var8 Int) (var9 Int) (var10 Int) (var11 Int) (var12 Int)) (or (not (and (inv_main6 var12 var11 var10 var9) (and (and (and (and (and (and (and (and (and (and (and (= var8 (* (- 1) (+ var7 (* (- 1) var6)))) (and (not (<= 0 (+ var7 (* (- 1) var6)))) (and (= var5 (+ var4 (* (- 1) var7))) (<= 0 (+ var4 (* (- 1) var7)))))) (and (not (= var3 var2)) (and (not (= var8 var2)) (and (not (= var8 var3)) (and (not (= var5 var2)) (and (not (= var5 var3)) (and (not (= var5 var8)) (and (not (= var1 var0)) (and (not (= var6 var0)) (and (not (= var6 var1)) (and (not (= var7 var0)) (and (not (= var7 var1)) (and (not (= var7 var6)) (and (not (= var4 var0)) (and (not (= var4 var1)) (and (not (= var4 var6)) (not (= var4 var7)))))))))))))))))) (and (<= 0 (+ 4 (* (- 1) var2))) (<= 0 (+ var2 (- 1))))) (and (<= 0 (+ 4 (* (- 1) var3))) (<= 0 (+ var3 (- 1))))) (and (<= 0 (+ 4 (* (- 1) var8))) (<= 0 (+ var8 (- 1))))) (and (<= 0 (+ 4 (* (- 1) var5))) (<= 0 (+ var5 (- 1))))) (and (<= 0 (+ 4 (* (- 1) var0))) (<= 0 var0))) (and (<= 0 (+ 4 (* (- 1) var1))) (<= 0 var1))) (and (<= 0 (+ 4 (* (- 1) var6))) (<= 0 var6))) (and (<= 0 (+ 4 (* (- 1) var7))) (<= 0 var7))) (and (<= 0 (+ 4 (* (- 1) var4))) (<= 0 var4))))) (inv_main77 var12 var11 var10 var4 var7 var6 var1 var0 var5 var8 var3 var2 1 (+ var6 (* (- 1) var1))))))
(assert (forall ((var0 Int) (var1 Int) (var2 Int) (var3 Int) (var4 Int) (var5 Int) (var6 Int) (var7 Int) (var8 Int) (var9 Int) (var10 Int) (var11 Int) (var12 Int)) (or (not (and (inv_main6 var12 var11 var10 var9) (and (and (and (and (and (and (and (and (and (and (and (= var8 (+ var7 (* (- 1) var6))) (and (<= 0 (+ var7 (* (- 1) var6))) (and (= var5 (* (- 1) (+ var4 (* (- 1) var7)))) (not (<= 0 (+ var4 (* (- 1) var7))))))) (and (not (= var3 var2)) (and (not (= var8 var2)) (and (not (= var8 var3)) (and (not (= var5 var2)) (and (not (= var5 var3)) (and (not (= var5 var8)) (and (not (= var1 var0)) (and (not (= var6 var0)) (and (not (= var6 var1)) (and (not (= var7 var0)) (and (not (= var7 var1)) (and (not (= var7 var6)) (and (not (= var4 var0)) (and (not (= var4 var1)) (and (not (= var4 var6)) (not (= var4 var7)))))))))))))))))) (and (<= 0 (+ 4 (* (- 1) var2))) (<= 0 (+ var2 (- 1))))) (and (<= 0 (+ 4 (* (- 1) var3))) (<= 0 (+ var3 (- 1))))) (and (<= 0 (+ 4 (* (- 1) var8))) (<= 0 (+ var8 (- 1))))) (and (<= 0 (+ 4 (* (- 1) var5))) (<= 0 (+ var5 (- 1))))) (and (<= 0 (+ 4 (* (- 1) var0))) (<= 0 var0))) (and (<= 0 (+ 4 (* (- 1) var1))) (<= 0 var1))) (and (<= 0 (+ 4 (* (- 1) var6))) (<= 0 var6))) (and (<= 0 (+ 4 (* (- 1) var7))) (<= 0 var7))) (and (<= 0 (+ 4 (* (- 1) var4))) (<= 0 var4))))) (inv_main77 var12 var11 var10 var4 var7 var6 var1 var0 var5 var8 var3 var2 1 (+ var6 (* (- 1) var1))))))
(assert (forall ((var0 Int) (var1 Int) (var2 Int) (var3 Int) (var4 Int) (var5 Int) (var6 Int) (var7 Int) (var8 Int) (var9 Int) (var10 Int) (var11 Int) (var12 Int)) (or (not (and (inv_main6 var12 var11 var10 var9) (and (and (and (and (and (and (and (and (and (and (and (= var8 (* (- 1) (+ var7 (* (- 1) var6)))) (and (not (<= 0 (+ var7 (* (- 1) var6)))) (and (= var5 (* (- 1) (+ var4 (* (- 1) var7)))) (not (<= 0 (+ var4 (* (- 1) var7))))))) (and (not (= var3 var2)) (and (not (= var8 var2)) (and (not (= var8 var3)) (and (not (= var5 var2)) (and (not (= var5 var3)) (and (not (= var5 var8)) (and (not (= var1 var0)) (and (not (= var6 var0)) (and (not (= var6 var1)) (and (not (= var7 var0)) (and (not (= var7 var1)) (and (not (= var7 var6)) (and (not (= var4 var0)) (and (not (= var4 var1)) (and (not (= var4 var6)) (not (= var4 var7)))))))))))))))))) (and (<= 0 (+ 4 (* (- 1) var2))) (<= 0 (+ var2 (- 1))))) (and (<= 0 (+ 4 (* (- 1) var3))) (<= 0 (+ var3 (- 1))))) (and (<= 0 (+ 4 (* (- 1) var8))) (<= 0 (+ var8 (- 1))))) (and (<= 0 (+ 4 (* (- 1) var5))) (<= 0 (+ var5 (- 1))))) (and (<= 0 (+ 4 (* (- 1) var0))) (<= 0 var0))) (and (<= 0 (+ 4 (* (- 1) var1))) (<= 0 var1))) (and (<= 0 (+ 4 (* (- 1) var6))) (<= 0 var6))) (and (<= 0 (+ 4 (* (- 1) var7))) (<= 0 var7))) (and (<= 0 (+ 4 (* (- 1) var4))) (<= 0 var4))))) (inv_main77 var12 var11 var10 var4 var7 var6 var1 var0 var5 var8 var3 var2 1 (+ var6 (* (- 1) var1))))))
(assert (forall ((var0 Int) (var1 Int) (var2 Int) (var3 Int) (var4 Int) (var5 Int) (var6 Int) (var7 Int) (var8 Int) (var9 Int) (var10 Int) (var11 Int) (var12 Int) (var13 Int)) (not (inv_main84 var13 var12 var11 var10 var9 var8 var7 var6 var5 var4 var3 var2 var1 var0))))
(check-sat)
